NAME          TESTPROB
ROWS
 N  COST
 E  LIM1
 E  LIM2
COLUMNS
    XONE      COST                 -1   LIM1                 1
    XONE      LIM2                 2
    YTWO      COST                 -1   LIM1                 1
    YTWO      LIM2                 -1
RHS
    RHS1      LIM1                 7   LIM2                 3
BOUNDS
ENDATA
